
Log started (V12.8.0.0) Wed Aug 29 20:26:13 2018

New value for time limit in seconds: 500
CPXPARAM_TimeLimit                               500
CPXPARAM_Emphasis_Numerical                      1
CPXPARAM_Parallel                                -1
CPXPARAM_Benders_Strategy                        3
CPXPARAM_MIP_Tolerances_Integrality              9.9999999999999995e-08
CPXPARAM_MIP_Pool_AbsGap                         0
Tried aggregator 4 times.
MIP Presolve eliminated 7516 rows and 3546 columns.
Aggregator did 1213 substitutions.
Reduced MIP has 3137 rows, 2689 columns, and 10858 nonzeros.
Reduced MIP has 271 binaries, 0 generals, 0 SOSs, and 0 indicators.
Presolve time = 0.01 sec. (15.75 ticks)
Found incumbent of value 0.600000 after 0.02 sec. (24.76 ticks)
Tried aggregator 1 time.
Reduced MIP has 3137 rows, 2689 columns, and 10858 nonzeros.
Reduced MIP has 271 binaries, 0 generals, 0 SOSs, and 0 indicators.
Presolve time = 0.00 sec. (3.17 ticks)

        Nodes                                         Cuts/
   Node  Left     Objective  IInf  Best Integer    Best Bound    ItCnt     Gap

      0     0       10.0000                       Benders: 10        0         
      0     0       10.0000                        Benders: 1        4         
      0     0       10.0000                        Benders: 3        5         
      0     0       10.0000                        Benders: 3        7         
Tried aggregator 1 time.
MIP Presolve eliminated 1 rows and 0 columns.
MIP Presolve modified 170 coefficients.
Reduced MIP has 273 rows, 281 columns, and 862 nonzeros.
Reduced MIP has 271 binaries, 0 generals, 0 SOSs, and 0 indicators.
Presolve time = 0.00 sec. (0.51 ticks)
Probing time = 0.00 sec. (0.12 ticks)
Tried aggregator 1 time.
Reduced MIP has 273 rows, 281 columns, and 862 nonzeros.
Reduced MIP has 271 binaries, 0 generals, 0 SOSs, and 0 indicators.
Presolve time = 0.00 sec. (0.48 ticks)
Probing time = 0.00 sec. (0.12 ticks)
Clique table members: 246.
MIP emphasis: balance optimality and feasibility.
MIP search method: dynamic search.
Parallel mode: opportunistic, using up to 8 threads.
Root relaxation solution time = 0.00 sec. (0.32 ticks)
*     0+    0                            0.6000       10.0000              --- 
      0     0       10.0000     4        0.6000       10.0000       28     --- 
      0     0       10.0000     5        0.6000      Cuts: 15       33     --- 
*     0+    0                            5.0000       10.0000           100.00%
      0     0       10.0000     8        5.0000      Fract: 3       38  100.00%

Repeating presolve.
Tried aggregator 1 time.
Reduced MIP has 273 rows, 281 columns, and 862 nonzeros.
Reduced MIP has 271 binaries, 0 generals, 0 SOSs, and 0 indicators.
Presolve time = 0.00 sec. (0.49 ticks)
Probing time = 0.00 sec. (0.13 ticks)
Tried aggregator 1 time.
Reduced MIP has 273 rows, 281 columns, and 862 nonzeros.
Reduced MIP has 271 binaries, 0 generals, 0 SOSs, and 0 indicators.
Presolve time = 0.00 sec. (0.48 ticks)
Represolve time = 0.00 sec. (1.83 ticks)
Probing time = 0.00 sec. (0.13 ticks)
Clique table members: 246.
MIP emphasis: balance optimality and feasibility.
MIP search method: dynamic search.
Parallel mode: opportunistic, using up to 8 threads.
Root relaxation solution time = 0.00 sec. (0.45 ticks)
*     0+    0                            5.0000       10.0000           100.00%
      0     0       10.0000     6        5.0000       10.0000       68  100.00%
      0     0       10.0000     7        5.0000       Cuts: 9       74  100.00%
      0     0       10.0000     4        5.0000      Cuts: 11       81  100.00%
      0     2       10.0000    10        5.0000      Cuts: 22       81  100.00%
Elapsed time = 0.49 sec. (381.83 ticks, tree = 0.01 MB, solutions = 1)
*     6+    6                            6.2942       10.0000            58.88%
*    23+    6                            7.3037       10.0000            36.92%
*   113+   35                            7.7381       10.0000            29.23%
*   169+   88                            7.9048       10.0000            26.51%
    405   175       10.0000    18        9.9048       10.0000     1801    0.96%
*   637+  142                            9.9048       10.0000             0.96%
*   985+  170                            9.9474       10.0000             0.53%
   1130   183        cutoff              9.9474       10.0000     7543    0.53%
*  1149   163      integral     0       10.0000       10.0000     7731    0.00%

Benders cuts applied:  1090
Cover cuts applied:  10
Mixed integer rounding cuts applied:  13
Zero-half cuts applied:  1
Gomory fractional cuts applied:  3

Root node processing (before b&c):
  Real time             =    0.40 sec. (376.95 ticks)
Parallel b&c, 8 threads:
  Real time             =    0.82 sec. (519.16 ticks)
  Sync time (average)   =    0.02 sec.
  Wait time (average)   =    0.01 sec.
                          ------------
Total (root+branch&cut) =    1.22 sec. (896.11 ticks)

Solution pool: 3 solutions saved.

MIP - Integer optimal solution:  Objective =  1.0000000000e+01
Solution time =    1.22 sec.  Iterations = 10044  Nodes = 1161 (1)
Deterministic time = 896.70 ticks  (733.92 ticks/sec)


Solution pool written to file 'ngp_a8_b2_n1.sol'.
Current MIP best bound =  1.0000000000e+01 (gap = -0, 0.00%)
